Maximize

27.5 b0 + 22.5 b1 + 33.0 b2 + 41.0 b3 + 8 b4 + 10 b5 + 38.0 b6 + 41.0 b7 + 8 b8 + 10 b9 + 59.5 b10 + 202.0 b11 + 8 b12 + 10 b13 + 230.0 b14 + 54.5 b15 + 84.0 b16 + 99.5 b17 + 82.5 b18 + 31.0 b19.v0 + 31.0 b19.v1 + 460.5 b20.v0 + 458.5 b20.v1 + 163.5 b21 + 79.5 b22.v0 + 77.5 b22.v1 + 144.5 b23.v0 + 142.5 b23.v1 + 144.5 b23.v2 + 153.0 b24 + 68.0 b25 + 195.5 b26.v0 + 195.5 b26.v1 + 18.5 b27 + 8 b28 + 10 b29 + 41.5 b30


Subject to

\ === tcfg constraints ===
dSta_0 = 1
b0 - dSta_0 = 0
b0 - d0_1 = 0
b1 - d0_1 = 0
b1 - d1_2 = 0
b2 - d1_2 = 0
b2 - d2_6 - d2_3 = 0
b3 - d2_3 = 0
b3 - d3_4 = 0
b4 - d3_4 = 0
b4 - d4_5 = 0
b5 - d4_5 = 0
b6 - d2_6 = 0
b6 - d6_10 - d6_7 = 0
b7 - d6_7 = 0
b7 - d7_8 = 0
b8 - d7_8 = 0
b8 - d8_9 = 0
b9 - d8_9 = 0
b10 - d6_10 = 0
b10 - d10_14 - d10_11 = 0
b11 - d10_11 = 0
b11 - d11_12 = 0
b12 - d11_12 = 0
b12 - d12_13 = 0
b13 - d12_13 = 0
b14 - d10_14 = 0
b14 - d14_23 - d14_15 = 0
b15 - d14_15 = 0
b15 - d15_23 - d15_16 = 0
b16 - d15_16 = 0
b16 - d16_30 - d16_17 = 0
b17 - d16_17 = 0
b17 - d17_19 - d17_18 = 0
b18 - d17_18 = 0
b18 - d18_19 = 0
b19 - d17_19 - d18_19 = 0
b19 - d19_20 = 0
b20 - d19_20 - d30_20 = 0
b20 - d20_22 - d20_21 = 0
b21 - d20_21 = 0
b21 - d21_22 = 0
b22 - d20_22 - d21_22 = 0
b22 - d22_23 = 0
b23 - d14_23 - d22_23 - d15_23 = 0
b23 - d23_24 = 0
b24 - d23_24 = 0
b24 - d24_26 - d24_25 = 0
b25 - d24_25 = 0
b25 - d25_26 = 0
b26 - d24_26 - d25_26 = 0
b26 - d26_27 = 0
b27 - d26_27 = 0
b27 - d27_28 = 0
b28 - d27_28 = 0
b28 - d28_29 = 0
b29 - d28_29 = 0
b30 - d16_30 = 0
b30 - d30_20 = 0


\ === header constraints ===



\ === context constraints ===
b19 - b19.v0 - b19.v1 = 0
b19.v0 - d17_19 = 0
b19.v1 - d18_19 = 0
b20 - b20.v0 - b20.v1 = 0
b20.v0 - d19_20 = 0
b20.v1 - d30_20 = 0
b22 - b22.v0 - b22.v1 = 0
b22.v0 - d20_22 = 0
b22.v1 - d21_22 = 0
b23 - b23.v0 - b23.v1 - b23.v2 = 0
b23.v0 - d14_23 = 0
b23.v1 - d22_23 = 0
b23.v2 - d15_23 = 0
b26 - b26.v0 - b26.v1 = 0
b26.v0 - d24_26 = 0
b26.v1 - d25_26 = 0


\ === inst cache constraints ===



\ === data cache constraints ===



Generals


b0
b1
b2
b3
b4
b5
b6
b7
b8
b9
b10
b11
b12
b13
b14
b15
b16
b17
b18
b19
b19.v0
b19.v1
b20
b20.v0
b20.v1
b21
b22
b22.v0
b22.v1
b23
b23.v0
b23.v1
b23.v2
b24
b25
b26
b26.v0
b26.v1
b27
b28
b29
b30
d0_1
d1_2
d2_3
d2_6
d3_4
d4_5
d6_7
d6_10
d7_8
d8_9
d10_11
d10_14
d11_12
d12_13
d14_15
d14_23
d15_16
d15_23
d16_17
d16_30
d17_18
d17_19
d18_19
d19_20
d20_21
d20_22
d21_22
d22_23
d23_24
d24_25
d24_26
d25_26
d26_27
d27_28
d28_29
d30_20
dSta_0


End
\ total cons: 91    total vars: 79
